
Gurobi 11.0.0 (win64) logging started Thu May  9 15:50:08 2024

Set parameter LogFile to value "./Results/StripPacking-CutHeurRuns/Logs/SU-111-StripPacking-30.log"
Set parameter TimeLimit to value 10800
Set parameter Cuts to value 1
Set parameter Presolve to value 1
Set parameter Heuristics to value 1
Set parameter LPWarmStart to value 2
Gurobi Optimizer version 11.0.0 build v11.0.0rc2 (win64 - Windows 10.0 (19045.2))

CPU model: Intel(R) Core(TM) i9-10980XE CPU @ 3.00GHz, instruction set [SSE2|AVX|AVX2|AVX512]
Thread count: 18 physical cores, 36 logical processors, using up to 18 threads

Optimize a model with 5685 rows, 1801 columns and 13980 nonzeros
Model fingerprint: 0xf4db91ca
Variable types: 61 continuous, 1740 integer (1740 binary)
Coefficient statistics:
  Matrix range     [1e+00, 1e+04]
  Objective range  [1e+00, 1e+00]
  Bounds range     [1e+00, 1e+04]
  RHS range        [1e+00, 1e+04]

Warning: Completing partial solution with 1740 unfixed non-continuous variables out of 1740
User MIP start produced solution with objective 134.1 (0.02s)
Loaded user MIP start with objective 134.1

Presolve removed 870 rows and 0 columns
Presolve time: 0.03s
Presolved: 4815 rows, 1801 columns, 12240 nonzeros
Variable types: 61 continuous, 1740 integer (1740 binary)

Root relaxation: objective 4.100000e+01, 1063 iterations, 0.03 seconds (0.04 work units)

    Nodes    |    Current Node    |     Objective Bounds      |     Work
 Expl Unexpl |  Obj  Depth IntInf | Incumbent    BestBd   Gap | It/Node Time

     0     0   41.00000    0  113  134.10000   41.00000  69.4%     -    0s
H    0     0                     123.0000000   41.00000  66.7%     -    0s
     0     0   41.00000    0  257  123.00000   41.00000  66.7%     -    4s
H    0     0                     114.0000000   41.00000  64.0%     -    4s
     0     0   41.00000    0  221  114.00000   41.00000  64.0%     -    4s
     0     0   41.00000    0  151  114.00000   41.00000  64.0%     -    5s
     0     0   41.00000    0  215  114.00000   41.00000  64.0%     -    5s
     0     0   41.00000    0  165  114.00000   41.00000  64.0%     -    6s
     0     0   41.00000    0  197  114.00000   41.00000  64.0%     -    6s
     0     0   41.00000    0  175  114.00000   41.00000  64.0%     -    6s
     0     0   41.00000    0  172  114.00000   41.00000  64.0%     -    6s
     0     2   41.00000    0  160  114.00000   41.00000  64.0%     -    7s
H   32    50                     111.0000000   41.00000  63.1%   261    8s
    67    86   41.00000    7  220  111.00000   41.00000  63.1%   222   10s
H   90   104                     109.0000000   41.00000  62.4%   201   10s
H  158   177                     103.0000000   41.00000  60.2%   149   16s
   301   318   41.00000   13  237  103.00000   41.00000  60.2%   103   32s
H  302   318                     103.0000000   41.00000  60.2%   103   32s
H  304   318                     102.0000000   41.00000  59.8%   104   32s
H  305   318                      99.0000000   41.00000  58.6%   103   32s
